p wcnf 4000 400 1
1 1 0
1 2 0
1 3 0
1 4 0
1 5 0
1 6 0
1 7 0
1 8 0
1 9 0
1 10 0
1 11 0
1 12 0
1 13 0
1 14 0
1 15 0
1 1 1 1 1 1 1 1 1 1 1 1 1 1 1 0
1 1 1 1 1 1 1 1 1 2 2 2 2 2 2 0
1 2 2 2 2 2 2 2 2 2 2 2 2 2 2 0
1 2 2 2 2 2 2 2 2 2 2 2 2 2 2 0
1 2 2 2 3 3 3 3 3 3 3 3 3 3 3 0
1 3 3 3 3 3 3 3 3 3 3 3 3 3 3 0
1 3 3 3 3 3 3 3 3 3 3 4 4 4 4 0
1 4 4 4 4 4 4 4 4 4 4 4 4 4 4 0
1 4 4 4 4 4 4 4 4 4 4 4 4 4 4 0
1 4 4 4 4 4 4 5 5 5 5 5 5 5 5 0
1 5 5 5 5 5 5 5 5 5 5 5 5 5 5 0
1 5 5 5 5 5 5 5 5 5 5 5 5 5 5 0
1 5 5 5 5 5 6 6 6 6 6 6 6 6 6 0
1 6 6 6 6 6 6 6 6 6 6 6 6 6 6 0
1 6 6 6 6 6 6 6 7 7 7 7 7 7 7 0
1 7 7 7 7 7 7 7 7 7 7 7 7 7 7 0
1 7 7 7 7 7 7 7 7 7 7 7 7 7 7 0
1 7 7 7 7 8 8 8 8 8 8 8 8 8 8 0
1 8 8 8 8 8 8 8 8 8 8 8 8 8 8 0
1 8 8 8 8 8 8 8 8 8 9 9 9 9 9 0
1 9 9 9 9 9 9 9 9 9 9 9 9 9 9 0
1 9 9 9 9 9 9 9 9 9 10 10 10 10 10 0
1 10 10 10 10 10 10 10 10 10 10 10 10 10 10 0
1 10 10 10 10 10 10 10 10 10 10 10 10 10 10 0
1 11 11 11 11 11 11 11 11 11 11 11 11 11 11 0
1 11 11 11 11 11 11 11 11 11 11 11 11 11 11 0
1 11 11 11 11 11 12 12 12 12 12 12 12 12 12 0
1 12 12 12 12 12 12 12 12 12 12 12 12 12 12 0
1 12 12 12 12 12 12 12 12 12 12 12 12 12 12 0
1 12 12 12 12 12 12 13 13 13 13 13 13 13 13 0
1 13 13 13 13 13 13 13 13 13 13 13 13 13 13 0
1 13 13 13 13 13 13 13 13 13 13 13 13 13 13 0
1 14 14 14 14 14 14 14 14 14 14 14 14 14 14 0
1 14 14 14 14 14 14 14 14 14 14 14 14 14 14 0
1 14 14 14 14 15 15 15 15 15 15 15 15 15 15 0
1 15 15 15 15 15 15 15 15 15 15 15 15 15 15 0
1 15 15 15 15 15 15 15 15 15 15 15 15 15 15 0
1 15 15 15 16 16 16 16 16 16 16 16 16 16 16 0
1 16 16 16 16 16 16 16 16 16 16 16 16 16 16 0
1 16 16 16 16 16 16 16 16 16 17 17 17 17 17 0
1 17 17 17 17 17 17 17 17 17 17 17 17 17 17 0
1 17 17 17 17 17 17 17 17 17 17 17 17 17 17 0
1 17 18 18 18 18 18 18 18 18 18 18 18 18 18 0
1 18 18 18 18 18 18 18 18 18 18 18 18 18 18 0
1 18 18 18 18 18 18 18 19 19 19 19 19 19 19 0
1 19 19 19 19 19 19 19 19 19 19 19 19 19 19 0
1 19 19 19 19 19 19 19 19 19 19 19 19 19 19 0
1 19 19 19 19 19 19 19 20 20 20 20 20 20 20 0
1 20 20 20 20 20 20 20 20 20 20 20 20 20 20 0
1 20 20 20 20 20 20 20 20 20 20 20 20 20 20 0
1 20 21 21 21 21 21 21 21 21 21 21 21 21 21 0
1 21 21 21 21 21 21 21 21 21 21 21 21 21 21 0
1 21 21 21 21 21 21 21 21 21 21 21 21 22 22 0
1 22 22 22 22 22 22 22 22 22 22 22 22 22 22 0
1 22 22 22 22 22 22 22 22 22 22 22 22 22 22 0
1 22 22 22 22 22 22 22 22 22 22 22 22 22 22 0
1 22 22 23 23 23 23 23 23 23 23 23 23 23 23 0
1 23 23 23 23 23 23 23 23 23 23 23 23 23 23 0
1 23 23 23 23 23 23 23 23 23 23 23 23 23 24 0
1 24 24 24 24 24 24 24 24 24 24 24 24 24 24 0
1 24 24 24 24 24 24 24 24 24 24 24 24 24 24 0
1 24 24 24 25 25 25 25 25 25 25 25 25 25 25 0
1 25 25 25 25 25 25 25 25 25 25 25 25 25 25 0
1 25 26 26 26 26 26 26 26 26 26 26 26 26 26 0
1 26 26 26 26 26 26 26 26 26 26 26 26 26 26 0
1 26 26 26 26 26 26 26 26 26 26 26 26 26 26 0
1 26 26 26 27 27 27 27 27 27 27 27 27 27 27 0
1 27 27 27 27 27 27 27 27 27 27 27 27 27 27 0
1 27 27 27 27 27 27 27 27 27 27 27 27 27 27 0
1 28 28 28 28 28 28 28 28 28 28 28 28 28 28 0
1 28 28 28 28 28 28 28 28 28 28 28 28 28 28 0
1 28 28 28 29 29 29 29 29 29 29 29 29 29 29 0
1 29 29 29 29 29 29 29 29 29 29 29 29 29 29 0
1 29 29 29 29 29 29 29 29 29 29 29 29 29 29 0
1 29 29 29 29 30 30 30 30 30 30 30 30 30 30 0
1 30 30 30 30 30 30 30 30 30 30 30 30 30 30 0
1 30 30 30 30 30 30 31 31 31 31 31 31 31 31 0
1 31 31 31 31 31 31 31 31 31 31 31 31 31 31 0
1 31 31 31 31 31 31 31 31 31 31 31 32 32 32 0
1 32 32 32 32 32 32 32 32 32 32 32 32 32 32 0
1 32 32 32 32 32 32 32 32 32 32 32 32 32 32 0
1 32 32 32 32 32 32 32 33 33 33 33 33 33 33 0
1 33 33 33 33 33 33 33 33 33 33 33 33 33 33 0
1 33 33 33 33 33 33 33 33 33 33 33 33 33 33 0
1 33 33 33 33 33 33 33 34 34 34 34 34 34 34 0
1 34 34 34 34 34 34 34 34 34 34 34 34 34 34 0
1 34 34 34 34 34 34 34 34 34 34 34 34 34 34 0
1 34 35 35 35 35 35 35 35 35 35 35 35 35 35 0
1 35 35 35 35 35 35 35 35 35 35 35 35 35 35 0
1 35 35 36 36 36 36 36 36 36 36 36 36 36 36 0
1 36 36 36 36 36 36 36 36 36 36 36 36 36 36 0
1 36 36 36 36 36 36 36 36 36 36 36 36 36 36 0
1 37 37 37 37 37 37 37 37 37 37 37 37 37 37 0
1 37 37 37 37 37 37 37 37 37 37 37 37 37 37 0
1 37 37 37 37 37 37 37 37 37 37 37 37 37 37 0
1 37 38 38 38 38 38 38 38 38 38 38 38 38 38 0
1 38 38 38 38 38 38 38 38 38 38 38 38 38 38 0
1 38 38 38 38 38 38 38 39 39 39 39 39 39 39 0
1 39 39 39 39 39 39 39 39 39 39 39 39 39 39 0
1 39 39 39 39 39 39 39 39 39 39 39 39 39 39 0
1 39 39 39 39 39 39 39 39 39 39 39 39 39 39 0
1 40 40 40 40 40 40 40 40 40 40 40 40 40 40 0
1 40 40 40 40 40 40 40 40 40 40 40 40 40 40 0
1 40 40 40 40 40 40 40 40 41 41 41 41 41 41 0
1 41 41 41 41 41 41 41 41 41 41 41 41 41 41 0
1 41 41 41 41 41 41 41 41 41 41 41 41 41 41 0
1 41 41 41 41 41 41 41 41 41 41 42 42 42 42 0
1 42 42 42 42 42 42 42 42 42 42 42 42 42 42 0
1 42 42 42 42 42 42 42 42 42 42 42 42 42 42 0
1 42 42 42 42 43 43 43 43 43 43 43 43 43 43 0
1 43 43 43 43 43 43 43 43 43 43 43 43 43 43 0
1 43 43 43 43 43 43 43 43 43 43 43 43 43 43 0
1 44 44 44 44 44 44 44 44 44 44 44 44 44 44 0
1 44 44 44 44 44 44 44 44 44 44 44 44 44 44 0
1 44 44 44 44 44 44 44 44 44 44 44 44 44 44 0
1 44 44 44 44 45 45 45 45 45 45 45 45 45 45 0
1 45 45 45 45 45 45 45 45 45 45 45 45 45 45 0
1 45 45 45 45 45 45 45 45 45 45 45 45 45 46 0
1 46 46 46 46 46 46 46 46 46 46 46 46 46 46 0
1 46 46 46 46 46 46 46 46 46 46 46 46 46 46 0
1 47 47 47 47 47 47 47 47 47 47 47 47 47 47 0
1 47 47 47 47 47 47 47 47 47 47 47 47 47 47 0
1 47 47 47 47 47 48 48 48 48 48 48 48 48 48 0
1 48 48 48 48 48 48 48 48 48 48 48 48 48 48 0
1 48 48 48 48 48 48 48 48 48 48 48 48 48 48 0
1 48 48 49 49 49 49 49 49 49 49 49 49 49 49 0
1 49 49 49 49 49 49 49 49 49 49 49 49 49 49 0
1 49 49 49 49 49 49 49 49 49 49 49 50 50 50 0
1 50 50 50 50 50 50 50 50 50 50 50 50 50 50 0
1 50 50 50 50 50 50 50 50 50 50 50 50 50 50 0
1 50 50 50 50 50 50 50 50 50 50 50 51 51 51 0
1 51 51 51 51 51 51 51 51 51 51 51 51 51 51 0
1 51 51 51 51 51 51 51 51 51 51 51 51 51 51 0
1 51 51 51 51 51 51 51 52 52 52 52 52 52 52 0
1 52 52 52 52 52 52 52 52 52 52 52 52 52 52 0
1 52 52 52 52 52 52 52 52 52 52 52 53 53 53 0
1 53 53 53 53 53 53 53 53 53 53 53 53 53 53 0
1 53 53 53 53 53 53 53 53 53 53 53 53 53 53 0
1 53 53 53 53 53 53 53 53 54 54 54 54 54 54 0
1 54 54 54 54 54 54 54 54 54 54 54 54 54 54 0
1 54 54 54 54 54 54 54 54 54 54 54 54 54 54 0
1 54 54 54 54 54 54 54 54 54 55 55 55 55 55 0
1 55 55 55 55 55 55 55 55 55 55 55 55 55 55 0
1 55 55 55 55 55 55 55 55 55 55 55 55 55 55 0
1 56 56 56 56 56 56 56 56 56 56 56 56 56 56 0
1 56 56 56 56 56 56 56 56 56 56 56 56 56 56 0
1 56 56 56 56 56 56 56 56 56 56 56 56 56 56 0
1 56 56 56 56 56 56 56 56 57 57 57 57 57 57 0
1 57 57 57 57 57 57 57 57 57 57 57 57 57 57 0
1 57 57 57 57 57 57 57 57 57 57 57 57 57 57 0
1 57 57 57 58 58 58 58 58 58 58 58 58 58 58 0
1 58 58 58 58 58 58 58 58 58 58 58 58 58 58 0
1 58 58 58 58 58 58 58 58 58 58 58 58 59 59 0
1 59 59 59 59 59 59 59 59 59 59 59 59 59 59 0
1 59 59 59 59 59 59 59 59 59 59 59 59 59 59 0
1 59 59 59 60 60 60 60 60 60 60 60 60 60 60 0
1 60 60 60 60 60 60 60 60 60 60 60 60 60 60 0
1 60 60 60 60 60 60 60 60 60 60 60 60 60 60 0
1 60 60 60 61 61 61 61 61 61 61 61 61 61 61 0
1 61 61 61 61 61 61 61 61 61 61 61 61 61 61 0
1 61 61 61 61 61 61 61 61 61 61 61 61 61 61 0
1 61 61 62 62 62 62 62 62 62 62 62 62 62 62 0
1 62 62 62 62 62 62 62 62 62 62 62 62 62 62 0
1 62 62 62 62 63 63 63 63 63 63 63 63 63 63 0
1 63 63 63 63 63 63 63 63 63 63 63 63 63 63 0
1 63 63 63 63 63 63 63 63 63 63 63 63 63 63 0
1 64 64 64 64 64 64 64 64 64 64 64 64 64 64 0
1 64 64 64 64 64 64 64 64 64 64 64 64 64 64 0
1 64 64 64 64 64 65 65 65 65 65 65 65 65 65 0
1 65 65 65 65 65 65 65 65 65 65 65 65 65 65 0
1 65 65 65 65 65 65 65 65 65 65 65 65 65 65 0
1 66 66 66 66 66 66 66 66 66 66 66 66 66 66 0
1 66 66 66 66 66 66 66 66 66 66 66 66 66 66 0
1 66 66 66 66 66 66 66 67 67 67 67 67 67 67 0
1 67 67 67 67 67 67 67 67 67 67 67 67 67 67 0
1 67 67 67 67 67 67 67 67 67 67 67 67 67 67 0
1 67 67 67 67 67 67 67 67 67 67 67 67 67 67 0
1 68 68 68 68 68 68 68 68 68 68 68 68 68 68 0
1 68 68 68 68 68 68 68 68 68 68 68 68 68 68 0
1 68 68 68 68 68 68 68 68 68 68 68 68 69 69 0
1 69 69 69 69 69 69 69 69 69 69 69 69 69 69 0
1 69 69 69 69 69 69 69 69 69 69 69 69 69 69 0
1 69 69 69 69 69 69 69 69 69 69 69 70 70 70 0
1 70 70 70 70 70 70 70 70 70 70 70 70 70 70 0
1 70 70 70 70 70 70 70 70 70 70 70 70 70 70 0
1 70 70 70 71 71 71 71 71 71 71 71 71 71 71 0
1 71 71 71 71 71 71 71 71 71 71 71 71 71 71 0
1 71 71 71 71 71 71 71 71 71 71 71 72 72 72 0
1 72 72 72 72 72 72 72 72 72 72 72 72 72 72 0
1 72 72 72 72 72 72 72 72 72 72 72 72 72 72 0
1 72 72 72 72 72 72 72 73 73 73 73 73 73 73 0
1 73 73 73 73 73 73 73 73 73 73 73 73 73 73 0
1 73 73 73 73 73 73 73 73 73 73 73 73 73 73 0
1 73 73 73 73 73 73 74 74 74 74 74 74 74 74 0
1 74 74 74 74 74 74 74 74 74 74 74 74 74 74 0
1 74 74 74 74 74 74 74 74 74 74 74 74 75 75 0
1 75 75 75 75 75 75 75 75 75 75 75 75 75 75 0
1 75 75 75 75 75 75 75 75 75 75 75 75 75 75 0
1 75 75 75 75 75 75 75 76 76 76 76 76 76 76 0
1 76 76 76 76 76 76 76 76 76 76 76 76 76 76 0
1 76 76 76 76 76 76 76 76 76 76 76 76 76 76 0
1 76 76 77 77 77 77 77 77 77 77 77 77 77 77 0
1 77 77 77 77 77 77 77 77 77 77 77 77 77 77 0
1 77 77 77 77 77 78 78 78 78 78 78 78 78 78 0
1 78 78 78 78 78 78 78 78 78 78 78 78 78 78 0
1 78 78 78 78 78 78 78 78 78 78 78 78 78 78 0
1 78 78 79 79 79 79 79 79 79 79 79 79 79 79 0
1 79 79 79 79 79 79 79 79 79 79 79 79 79 79 0
1 79 79 79 79 79 79 79 79 79 79 79 79 79 79 0
1 79 79 79 79 79 79 79 79 79 79 79 79 79 79 0
1 80 80 80 80 80 80 80 80 80 80 80 80 80 80 0
1 80 80 80 80 80 80 80 80 80 80 80 80 80 80 0
1 80 80 80 80 80 80 80 80 80 80 80 81 81 81 0
1 81 81 81 81 81 81 81 81 81 81 81 81 81 81 0
1 81 81 81 81 81 81 81 81 81 81 81 81 81 81 0
1 81 81 81 81 81 81 81 81 81 81 81 81 81 81 0
1 81 81 82 82 82 82 82 82 82 82 82 82 82 82 0
1 82 82 82 82 82 82 82 82 82 82 82 82 82 82 0
1 82 82 82 82 82 82 82 83 83 83 83 83 83 83 0
1 83 83 83 83 83 83 83 83 83 83 83 83 83 83 0
1 83 83 83 83 83 83 83 83 83 83 83 83 83 83 0
1 83 83 83 83 83 83 84 84 84 84 84 84 84 84 0
1 84 84 84 84 84 84 84 84 84 84 84 84 84 84 0
1 84 84 84 84 84 84 84 84 84 84 84 84 84 84 0
1 84 84 84 84 84 85 85 85 85 85 85 85 85 85 0
1 85 85 85 85 85 85 85 85 85 85 85 85 85 85 0
1 85 85 85 85 85 85 85 85 85 85 85 85 85 86 0
1 86 86 86 86 86 86 86 86 86 86 86 86 86 86 0
1 86 86 86 86 86 86 86 86 86 86 86 86 86 86 0
1 86 86 86 86 86 86 86 86 87 87 87 87 87 87 0
1 87 87 87 87 87 87 87 87 87 87 87 87 87 87 0
1 87 87 87 87 87 87 87 87 87 87 87 87 87 87 0
1 87 87 87 87 87 87 87 87 87 87 87 87 87 88 0
1 88 88 88 88 88 88 88 88 88 88 88 88 88 88 0
1 88 88 88 88 88 88 88 88 88 88 88 88 88 88 0
1 89 89 89 89 89 89 89 89 89 89 89 89 89 89 0
1 89 89 89 89 89 89 89 89 89 89 89 89 89 89 0
1 89 89 89 89 89 89 89 89 89 90 90 90 90 90 0
1 90 90 90 90 90 90 90 90 90 90 90 90 90 90 0
1 90 90 90 90 90 90 90 90 90 90 90 90 90 90 0
1 90 90 90 91 91 91 91 91 91 91 91 91 91 91 0
1 91 91 91 91 91 91 91 91 91 91 91 91 91 91 0
1 91 91 91 91 91 91 91 91 92 92 92 92 92 92 0
1 92 92 92 92 92 92 92 92 92 92 92 92 92 92 0
1 92 92 92 93 93 93 93 93 93 93 93 93 93 93 0
1 93 93 93 93 93 93 93 93 94 94 94 94 94 94 0
1 94 94 94 94 94 94 94 94 94 94 94 94 94 94 0
1 94 94 94 94 94 94 94 94 94 94 94 94 94 94 0
1 94 94 94 94 94 94 94 94 94 94 94 95 95 95 0
1 95 95 95 95 95 95 95 95 95 95 95 95 95 95 0
1 95 95 95 95 95 95 95 95 95 95 95 95 95 95 0
1 95 95 95 96 96 96 96 96 96 96 96 96 96 96 0
1 96 96 96 96 96 96 96 96 96 96 96 96 96 96 0
1 96 96 96 96 96 96 96 96 96 96 96 96 96 96 0
1 96 96 96 96 96 97 97 97 97 97 97 97 97 97 0
1 97 97 97 97 97 97 97 97 97 97 97 97 97 97 0
1 97 97 97 97 97 97 97 97 97 97 98 98 98 98 0
1 98 98 98 98 98 98 98 98 98 98 98 98 98 98 0
1 98 98 98 98 98 98 98 98 98 98 98 98 98 99 0
1 99 99 99 99 99 99 99 99 99 99 99 99 99 99 0
1 99 99 99 99 99 99 99 99 99 99 99 99 99 99 0
1 99 99 99 99 99 99 99 99 99 99 99 99 99 99 0
1 99 99 99 99 99 100 100 100 100 100 100 100 100 100 0
1 100 100 100 100 100 100 100 100 100 100 100 100 100 100 0
1 100 100 100 100 100 100 100 100 100 100 100 100 100 100 0
1 100 100 100 100 100 100 100 100 100 0
1  0
1 253 265 273 278 400 460 468 504 514 527 586 623 656 694 0
1 835 837 860 907 965 970 1052 1065 1185 1204 1221 1422 1554 1573 0
1 1658 1674 1763 1765 1770 1791 1817 1856 1888 1947 2141 2350 2371 2406 0
1 2593 2710 2771 2782 2835 2860 2878 3039 3187 3292 3392 3422 3584 3795 0
1 3902 3909 3910 0
1  0
1 183 207 235 244 290 316 385 571 591 616 620 720 726 771 0
1 912 914 960 990 1000 1010 1143 1304 1316 1338 1404 1410 1504 1612 0
1 1618 1677 1682 1709 1710 1714 1735 1887 1944 2006 2029 2129 2142 2151 0
1 2197 2223 2231 2270 2312 2466 2510 2721 2754 2857 2875 2882 3250 3256 0
1 3366 3388 3395 3436 3472 3482 3521 3527 3604 3655 3745 3749 3840 3878 0
1  0
1  0
1 38 51 209 264 311 320 395 428 508 586 679 726 795 817 0
1 950 977 986 1001 1004 1112 1125 1172 1291 1309 1350 1456 1487 1526 0
1 1588 1640 1670 1684 1734 1784 1790 1941 2103 2161 2208 2223 2425 2434 0
1 2486 2526 2574 2691 2710 2717 2724 2763 2809 2811 2844 2919 2935 3034 0
1 3133 3142 3260 3268 3277 3328 3351 3448 3481 3483 3486 3566 3586 3611 0
1 3629 3748 3767 3813 3845 3856 3886 3914 0
1  0
1 47 88 235 294 299 427 445 524 552 578 580 583 651 661 0
1 701 705 794 833 845 861 862 864 889 909 938 942 1010 1011 0
1 1069 1086 1152 1275 1342 1357 1414 1570 1585 1611 1652 1753 1814 1833 0
1 1863 1897 1942 2020 2053 2102 2181 2187 2199 2226 2291 2320 2324 2798 0
1 2814 2879 2896 2983 3028 3043 3052 3153 3194 3228 3243 3298 3326 3400 0
1 3504 3757 3767 3809 3819 3860 3873 3915 0
1  0
1 89 124 152 207 216 251 285 296 337 417 501 618 825 834 0
1 1059 1067 1090 1101 1118 1179 1213 1215 1233 1336 1357 1387 1420 1427 0
1 1503 1553 1623 1716 1762 1803 1836 1905 1970 1979 1996 2045 2076 2083 0
1 2154 2177 2308 2322 2368 2413 2436 2497 2537 2598 2601 2623 2626 2722 0
1 2804 2863 2878 3004 3029 3268 3303 3346 3437 3463 3472 3489 3511 3518 0
1 3532 3559 3606 3743 3751 3753 3818 3857 3883 0
1  0
1 153 171 172 217 259 359 368 378 390 413 437 478 570 577 0
1 660 713 744 748 773 798 813 905 964 966 1032 1046 1060 1091 0
1 1295 1447 1454 1513 1570 1576 1580 1679 1736 1785 1822 1852 1855 1865 0
1 1906 1943 1951 1965 2017 2029 2038 2091 2120 2148 2179 2192 2209 2215 0
1 2311 2333 2348 2420 2442 2476 2680 2720 2911 2949 3090 3091 3113 3168 0
1 3194 3227 3304 3349 3364 3386 3458 3529 3622 3703 3789 3793 3849 3907 0
1 3960 3974 0
1  0
1 117 238 239 306 326 366 429 439 519 680 691 782 829 944 0
1 967 1047 1049 1085 1127 1131 1140 1167 1202 1212 1403 1459 1509 1544 0
1 1621 1642 1678 1688 1697 1810 1853 1855 1879 1911 1952 2038 2080 2086 0
1 2142 2158 2230 2235 2265 2320 2346 2385 2397 2467 2469 2682 2689 2695 0
1 2897 2917 2977 2978 2987 3001 3016 3043 3069 3109 3349 3359 3382 3475 0
1 3518 3575 3635 3636 3700 3766 0
1  0
1 3 45 160 169 253 265 343 369 455 464 476 509 525 566 0
1 616 788 821 826 892 926 963 1096 1098 1131 1132 1137 1252 1264 0
1 1351 1411 1417 1443 1677 1831 1862 2107 2205 2309 2351 2359 2470 2489 0
1 2543 2571 2628 2672 2767 2799 2887 2904 2940 2944 2953 2956 3037 3069 0
1 3130 3179 3196 3403 3423 3462 3506 3514 3519 3527 3538 3548 3572 3581 0
1 3656 3721 3739 3812 3836 3906 3910 0
1  0
1 55 84 119 167 168 235 261 320 461 541 551 686 759 773 0
1 899 947 1092 1106 1145 1182 1208 1363 1398 1429 1432 1434 1479 1562 0
1 1651 1682 1728 1824 1903 1919 1922 1938 2043 2099 2160 2204 2287 2294 0
1 2366 2434 2453 2478 2480 2487 2522 2558 2770 2771 2774 2995 3040 3073 0
1 3142 3157 3237 3263 3446 3625 3638 3702 3773 3809 3825 3867 3877 3936 0
1  0
1 46 59 154 181 242 245 270 286 325 406 452 464 577 617 0
1 698 708 768 770 775 800 817 860 935 983 1027 1036 1101 1133 0
1 1167 1199 1200 1201 1210 1266 1310 1365 1402 1478 1512 1622 1630 1691 0
1 1768 1821 1852 1868 1869 2002 2036 2067 2159 2225 2231 2232 2259 2299 0
1 2334 2403 2436 2624 2709 2735 2759 2813 2913 2967 2995 3086 3179 3253 0
1 3266 3267 3300 3304 3341 3483 3517 3585 3650 3655 3712 3715 3748 3801 0
1 3984 3985 0
1  0
1 107 178 237 258 331 371 378 391 413 424 440 450 451 466 0
1 599 619 631 642 644 729 853 871 932 942 1030 1048 1093 1149 0
1 1217 1234 1253 1364 1400 1484 1620 1621 1634 1653 1670 1679 1692 1866 0
1 2028 2062 2065 2077 2095 2100 2140 2161 2256 2304 2439 2456 2513 2544 0
1 2623 2626 2665 2692 2741 2763 2966 2997 3041 3050 3136 3201 3202 3239 0
1 3342 3382 3386 3401 3543 3713 3758 3759 3828 3912 3930 3959 3968 0
1  0
1 61 114 131 251 272 400 436 444 474 653 716 743 825 852 0
1 957 1060 1123 1148 1178 1183 1250 1263 1269 1285 1291 1330 1354 1392 0
1 1527 1564 1567 1635 1647 1700 1774 1775 1786 1886 2041 2118 2150 2155 0
1 2543 2597 2647 2673 2848 2879 2940 2958 3209 3265 3354 3375 3387 3437 0
1 3515 3552 3594 3630 3647 3669 3701 3762 3842 3880 3934 3939 3975 0
1  0
1 40 95 377 384 500 583 597 701 704 724 728 748 757 860 0
1 1004 1010 1109 1118 1177 1195 1261 1405 1414 1461 1536 1582 1641 1671 0
1 1835 1980 1989 2099 2102 2158 2255 2283 2303 2479 2515 2543 2596 2630 0
1 2810 2835 2838 2935 3052 3265 3302 3357 3362 3386 3528 3543 3544 3610 0
1 3657 3711 3833 3877 3953 3986 0
1  0
1 74 127 128 185 206 241 290 359 380 465 544 557 588 590 0
1 745 947 960 1019 1024 1042 1095 1251 1262 1362 1448 1458 1466 1469 0
1 1544 1580 1598 1665 1705 1708 1744 1867 1893 1945 1969 1975 1995 2007 0
1 2011 2013 2032 2234 2237 2312 2319 2337 2339 2345 2363 2382 2414 2441 0
1 2608 2622 2628 2721 2798 2805 2834 2903 2924 3017 3025 3099 3132 3435 0
1 3590 3603 3625 3666 3668 3699 3794 3796 3805 3814 3884 0
1  0
1 46 161 208 279 307 325 345 413 417 460 532 655 796 946 0
1 1050 1085 1090 1190 1251 1272 1332 1386 1417 1421 1424 1502 1539 1623 0
1 1686 1826 1907 1912 1956 1984 2076 2130 2216 2282 2360 2372 2440 2531 0
1 2536 2554 2628 2673 2674 2698 2699 2704 2747 2797 2839 2846 2880 2955 0
1 3068 3074 3077 3113 3118 3164 3223 3271 3307 3312 3313 3347 3354 3406 0
1 3443 3546 3559 3592 3655 3708 3735 3801 3819 3880 3881 0
1  0
1 148 187 202 270 281 321 377 401 405 406 554 564 646 705 0
1 717 759 777 949 1155 1166 1180 1205 1411 1415 1480 1507 1643 1672 0
1 1702 1844 1866 1870 1897 1937 1941 1950 2029 2181 2264 2298 2300 2326 0
1 2399 2440 2441 2444 2524 2663 2699 2799 2815 2842 2848 2981 3051 3058 0
1 3105 3107 3117 3121 3222 3387 3391 3407 3510 3519 3546 3555 3595 3599 0
1 3665 3737 3751 3763 3837 3902 3913 3986 0
1  0
1 52 70 109 184 241 261 419 457 481 505 555 646 662 677 0
1 746 779 834 846 873 1015 1087 1112 1163 1196 1257 1281 1302 1338 0
1 1416 1436 1455 1459 1479 1496 1545 1550 1553 1595 1666 1678 1937 2055 0
1 2221 2279 2423 2445 2455 2500 2543 2631 2645 2715 2732 2879 2881 2899 0
1 2960 3251 3269 3314 3417 3429 3436 3460 3464 3478 3496 3688 3727 3790 0
1 3824 3844 3889 0
1  0
1 63 136 234 245 342 371 388 391 546 570 727 755 905 929 0
1 956 1013 1089 1244 1248 1325 1330 1366 1397 1442 1462 1621 1703 1934 0
1 2088 2105 2107 2152 2186 2199 2243 2259 2309 2318 2345 2365 2619 2674 0
1 2739 2762 2774 2807 2884 2908 2921 2924 2940 3056 3167 3271 3281 3290 0
1 3476 3479 3511 3542 3707 3817 3894 3903 3918 3977 0
1  0
1 87 202 214 249 327 350 373 390 401 567 585 709 734 742 0
1 847 905 1051 1056 1289 1291 1360 1372 1380 1430 1524 1576 1580 1769 0
1 1982 2027 2044 2061 2076 2121 2378 2548 2570 2582 2673 2799 2906 2920 0
1 2931 3082 3092 3296 3310 3325 3339 3343 3360 3431 3435 3463 3475 3483 0
1 3543 3554 3571 3608 3646 3717 3719 3744 3810 3816 3929 3940 3945 3965 0
1  0
1 68 80 101 159 315 429 435 468 474 476 549 595 685 695 0
1 804 806 949 1132 1223 1398 1467 1487 1578 1612 1667 1739 1768 1827 0
1 1929 1936 1960 1974 2009 2024 2062 2161 2183 2199 2253 2277 2340 2346 0
1 2388 2516 2595 2601 2675 2858 2962 2967 3001 3018 3062 3081 3170 3185 0
